p cnf 20 30
1 2 0
3 4 0
4 5 0
6 7 0
7 8 0
9 10 0
11 12 0
3 -5 0
6 -8 0
-1 -2 0
-3 -4 0
-6 -7 0
-9 -10 0
-11 -12 0
10 13 -1 0
10 14 -2 0
12 15 -1 0
12 16 -2 0
9 -1 -13 0
9 -2 -14 0
11 -1 -15 0
11 -2 -16 0
2 17 -3 -6 0
2 18 -4 -6 0
2 19 -3 -7 0
2 20 -4 -7 0
1 -3 -6 -17 0
1 -3 -7 -19 0
1 -4 -6 -18 0
1 -4 -7 -20 0